100
150
105
104
104
104
103
103
103
102
100
100
100
99
99
98
96
96
94
92
91
90
90
88
85
85
85
84
83
82
82
82
81
78
78
78
77
76
75
75
73
73
73
72
72
72
70
70
70
69
68
66
65
65
64
64
63
62
62
62
61
61
61
61
59
58
57
57
54
52
52
51
50
50
49
49
48
48
47
45
44
44
44
43
42
41
39
39
38
37
37
37
36
36
35
34
34
34
33
32
31
31
